<number of tasks>
50

<cycle time>
1000

<order strength>
0.2


<task times>
1 224
2 154
3 324
4 141
5 161
6 164
7 181
8 323
9 98
10 135
11 97
12 150
13 52
14 114
15 27
16 240
17 69
18 243
19 172
20 59
21 249
22 208
23 114
24 68
25 76
26 308
27 253
28 28
29 149
30 191
31 139
32 51
33 217
34 199
35 203
36 26
37 87
38 281
39 96
40 91
41 168
42 122
43 240
44 164
45 231
46 229
47 158
48 24
49 209
50 47

<precedence relations>
1,9
2,10
3,8
3,11
4,12
5,14
6,13
7,24
7,36
8,15
9,16
10,18
11,17
12,19
14,20
14,30
15,21
16,22
17,23
18,24
18,25
19,35
20,45
21,27
22,26
23,27
24,29
25,28
25,30
25,49
26,32
27,31
27,33
27,34
27,37
28,36
30,35
31,38
32,42
33,40
34,41
35,39
35,45
36,44
36,45
37,43
38,48
39,46
40,47
41,49
43,50

<end>
